15
45
664
783
643
604
641
726
884
603
795
802
740
702
880
619
1173
46	56
535	545
147	157
734	744
52	62
638	648
768	778
392	402
559	569
663	673
424	434
494	504
530	540
419	429
204	214
265	275
344	354
225	235
807	817
684	694
505	515
996	1006
113	123
96	106
924	934
740	750
199	209
353	363
453	463
428	438
78	88
929	939
484	494
272	282
939	949
185	195
224	234
891	901
396	406
724	734
849	859
753	763
562	572
821	831
674	684
